p cnf 1050
-18 -326
-19 -329
-20 -332
-21 -335
-22 -338
-23 -341
-24 -344
-25 -347
-26 -350
-27 -353
-28 -356
-29 -359
-30 -362
-31 -365
-32 -368
-33 -371
-34 -374
-35 375
-36 376
-37 377
-38 378
-39 379
-40 380
-41 -19
-41 -20
19 20 41
-42 -21
-42 -22
21 22 42
-43 -23
-43 -24
23 24 43
-44 -25
-44 -26
25 26 44
-45 -27
-45 -28
27 28 45
-46 -29
-46 -30
29 30 46
-47 -31
-47 -32
31 32 47
-48 -33
-48 -34
33 34 48
-49 -35
-49 -36
35 36 49
-50 -37
-50 -38
37 38 50
-51 -39
-51 -40
39 40 51
-52 41
-52 42
-41 -42 52
-53 43
-53 44
-43 -44 53
-54 45
-54 46
-45 -46 54
-55 47
-55 48
-47 -48 55
-56 49
-56 50
-49 -50 56
-57 52
-57 53
-52 -53 57
-58 54
-58 55
-54 -55 58
-59 51
-59 56
-51 -56 59
-60 57
-60 58
-57 -58 60
-61 59
-61 60
-59 -60 61
-62 -18
-62 19
18 -19 62
-63 18
-63 -19
-18 19 63
-64 -62
-64 -63
62 63 64
-65 18
-65 19
-18 -19 65
-66 -18
-66 -64
18 64 66
-67 18
-67 64
-18 -64 67
-68 -66
-68 -67
66 67 68
-69 18
-69 -64
-18 64 69
-70 -65
-70 -69
65 69 70
-71 -19
-71 20
19 -20 71
-72 19
-72 -20
-19 20 72
-73 -71
-73 -72
71 72 73
-74 19
-74 20
-19 -20 74
-75 70
-75 -73
-70 73 75
-76 -70
-76 73
70 -73 76
-77 -75
-77 -76
75 76 77
-78 -70
-78 -73
70 73 78
-79 -74
-79 -78
74 78 79
-80 -20
-80 21
20 -21 80
-81 20
-81 -21
-20 21 81
-82 -80
-82 -81
80 81 82
-83 20
-83 21
-20 -21 83
-84 79
-84 -82
-79 82 84
-85 -79
-85 82
79 -82 85
-86 -84
-86 -85
84 85 86
-87 -79
-87 -82
79 82 87
-88 -83
-88 -87
83 87 88
-89 -21
-89 22
21 -22 89
-90 21
-90 -22
-21 22 90
-91 -89
-91 -90
89 90 91
-92 21
-92 22
-21 -22 92
-93 88
-93 -91
-88 91 93
-94 -88
-94 91
88 -91 94
-95 -93
-95 -94
93 94 95
-96 -88
-96 -91
88 91 96
-97 -92
-97 -96
92 96 97
-98 -22
-98 23
22 -23 98
-99 22
-99 -23
-22 23 99
-100 -98
-100 -99
98 99 100
-101 22
-101 23
-22 -23 101
-102 97
-102 -100
-97 100 102
-103 -97
-103 100
97 -100 103
-104 -102
-104 -103
102 103 104
-105 -97
-105 -100
97 100 105
-106 -101
-106 -105
101 105 106
-107 -23
-107 24
23 -24 107
-108 23
-108 -24
-23 24 108
-109 -107
-109 -108
107 108 109
-110 23
-110 24
-23 -24 110
-111 106
-111 -109
-106 109 111
-112 -106
-112 109
106 -109 112
-113 -111
-113 -112
111 112 113
-114 -106
-114 -109
106 109 114
-115 -110
-115 -114
110 114 115
-116 -24
-116 25
24 -25 116
-117 24
-117 -25
-24 25 117
-118 -116
-118 -117
116 117 118
-119 24
-119 25
-24 -25 119
-120 115
-120 -118
-115 118 120
-121 -115
-121 118
115 -118 121
-122 -120
-122 -121
120 121 122
-123 -115
-123 -118
115 118 123
-124 -119
-124 -123
119 123 124
-125 -25
-125 26
25 -26 125
-126 25
-126 -26
-25 26 126
-127 -125
-127 -126
125 126 127
-128 25
-128 26
-25 -26 128
-129 124
-129 -127
-124 127 129
-130 -124
-130 127
124 -127 130
-131 -129
-131 -130
129 130 131
-132 -124
-132 -127
124 127 132
-133 -128
-133 -132
128 132 133
-134 -26
-134 27
26 -27 134
-135 26
-135 -27
-26 27 135
-136 -134
-136 -135
134 135 136
-137 26
-137 27
-26 -27 137
-138 133
-138 -136
-133 136 138
-139 -133
-139 136
133 -136 139
-140 -138
-140 -139
138 139 140
-141 -133
-141 -136
133 136 141
-142 -137
-142 -141
137 141 142
-143 -27
-143 28
27 -28 143
-144 27
-144 -28
-27 28 144
-145 -143
-145 -144
143 144 145
-146 27
-146 28
-27 -28 146
-147 142
-147 -145
-142 145 147
-148 -142
-148 145
142 -145 148
-149 -147
-149 -148
147 148 149
-150 -142
-150 -145
142 145 150
-151 -146
-151 -150
146 150 151
-152 -28
-152 29
28 -29 152
-153 28
-153 -29
-28 29 153
-154 -152
-154 -153
152 153 154
-155 28
-155 29
-28 -29 155
-156 151
-156 -154
-151 154 156
-157 -151
-157 154
151 -154 157
-158 -156
-158 -157
156 157 158
-159 -151
-159 -154
151 154 159
-160 -155
-160 -159
155 159 160
-161 -29
-161 30
29 -30 161
-162 29
-162 -30
-29 30 162
-163 -161
-163 -162
161 162 163
-164 29
-164 30
-29 -30 164
-165 160
-165 -163
-160 163 165
-166 -160
-166 163
160 -163 166
-167 -165
-167 -166
165 166 167
-168 -160
-168 -163
160 163 168
-169 -164
-169 -168
164 168 169
-170 -30
-170 31
30 -31 170
-171 30
-171 -31
-30 31 171
-172 -170
-172 -171
170 171 172
-173 30
-173 31
-30 -31 173
-174 169
-174 -172
-169 172 174
-175 -169
-175 172
169 -172 175
-176 -174
-176 -175
174 175 176
-177 -169
-177 -172
169 172 177
-178 -173
-178 -177
173 177 178
-179 -31
-179 32
31 -32 179
-180 31
-180 -32
-31 32 180
-181 -179
-181 -180
179 180 181
-182 31
-182 32
-31 -32 182
-183 178
-183 -181
-178 181 183
-184 -178
-184 181
178 -181 184
-185 -183
-185 -184
183 184 185
-186 -178
-186 -181
178 181 186
-187 -182
-187 -186
182 186 187
-188 -32
-188 33
32 -33 188
-189 32
-189 -33
-32 33 189
-190 -188
-190 -189
188 189 190
-191 32
-191 33
-32 -33 191
-192 187
-192 -190
-187 190 192
-193 -187
-193 190
187 -190 193
-194 -192
-194 -193
192 193 194
-195 -187
-195 -190
187 190 195
-196 -191
-196 -195
191 195 196
-197 -33
-197 34
33 -34 197
-198 33
-198 -34
-33 34 198
-199 -197
-199 -198
197 198 199
-200 33
-200 34
-33 -34 200
-201 196
-201 -199
-196 199 201
-202 -196
-202 199
196 -199 202
-203 -201
-203 -202
201 202 203
-204 -196
-204 -199
196 199 204
-205 -200
-205 -204
200 204 205
-206 -34
-206 35
34 -35 206
-207 34
-207 -35
-34 35 207
-208 -206
-208 -207
206 207 208
-209 34
-209 35
-34 -35 209
-210 205
-210 -208
-205 208 210
-211 -205
-211 208
205 -208 211
-212 -210
-212 -211
210 211 212
-213 -205
-213 -208
205 208 213
-214 -209
-214 -213
209 213 214
-215 -35
-215 36
35 -36 215
-216 35
-216 -36
-35 36 216
-217 -215
-217 -216
215 216 217
-218 35
-218 36
-35 -36 218
-219 214
-219 -217
-214 217 219
-220 -214
-220 217
214 -217 220
-221 -219
-221 -220
219 220 221
-222 -214
-222 -217
214 217 222
-223 -218
-223 -222
218 222 223
-224 -36
-224 37
36 -37 224
-225 36
-225 -37
-36 37 225
-226 -224
-226 -225
224 225 226
-227 36
-227 37
-36 -37 227
-228 223
-228 -226
-223 226 228
-229 -223
-229 226
223 -226 229
-230 -228
-230 -229
228 229 230
-231 -223
-231 -226
223 226 231
-232 -227
-232 -231
227 231 232
-233 -37
-233 38
37 -38 233
-234 37
-234 -38
-37 38 234
-235 -233
-235 -234
233 234 235
-236 37
-236 38
-37 -38 236
-237 232
-237 -235
-232 235 237
-238 -232
-238 235
232 -235 238
-239 -237
-239 -238
237 238 239
-240 -232
-240 -235
232 235 240
-241 -236
-241 -240
236 240 241
-242 -38
-242 39
38 -39 242
-243 38
-243 -39
-38 39 243
-244 -242
-244 -243
242 243 244
-245 38
-245 39
-38 -39 245
-246 241
-246 -244
-241 244 246
-247 -241
-247 244
241 -244 247
-248 -246
-248 -247
246 247 248
-249 -241
-249 -244
241 244 249
-250 -245
-250 -249
245 249 250
-251 -39
-251 40
39 -40 251
-252 39
-252 -40
-39 40 252
-253 -251
-253 -252
251 252 253
-254 39
-254 40
-39 -40 254
-255 250
-255 -253
-250 253 255
-256 -250
-256 253
250 -253 256
-257 -255
-257 -256
255 256 257
-258 -250
-258 -253
250 253 258
-259 -254
-259 -258
254 258 259
-260 18
-260 -68
-18 68 260
-261 -18
-261 20
18 -20 261
-262 -260
-262 -261
260 261 262
-263 18
-263 -77
-18 77 263
-264 -18
-264 21
18 -21 264
-265 -263
-265 -264
263 264 265
-266 18
-266 -86
-18 86 266
-267 -18
-267 22
18 -22 267
-268 -266
-268 -267
266 267 268
-269 18
-269 -95
-18 95 269
-270 -18
-270 23
18 -23 270
-271 -269
-271 -270
269 270 271
-272 18
-272 -104
-18 104 272
-273 -18
-273 24
18 -24 273
-274 -272
-274 -273
272 273 274
-275 18
-275 -113
-18 113 275
-276 -18
-276 25
18 -25 276
-277 -275
-277 -276
275 276 277
-278 18
-278 -122
-18 122 278
-279 -18
-279 26
18 -26 279
-280 -278
-280 -279
278 279 280
-281 18
-281 -131
-18 131 281
-282 -18
-282 27
18 -27 282
-283 -281
-283 -282
281 282 283
-284 18
-284 -140
-18 140 284
-285 -18
-285 28
18 -28 285
-286 -284
-286 -285
284 285 286
-287 18
-287 -149
-18 149 287
-288 -18
-288 29
18 -29 288
-289 -287
-289 -288
287 288 289
-290 18
-290 -158
-18 158 290
-291 -18
-291 30
18 -30 291
-292 -290
-292 -291
290 291 292
-293 18
-293 -167
-18 167 293
-294 -18
-294 31
18 -31 294
-295 -293
-295 -294
293 294 295
-296 18
-296 -176
-18 176 296
-297 -18
-297 32
18 -32 297
-298 -296
-298 -297
296 297 298
-299 18
-299 -185
-18 185 299
-300 -18
-300 33
18 -33 300
-301 -299
-301 -300
299 300 301
-302 18
-302 -194
-18 194 302
-303 -18
-303 34
18 -34 303
-304 -302
-304 -303
302 303 304
-305 18
-305 -203
-18 203 305
-306 -18
-306 35
18 -35 306
-307 -305
-307 -306
305 306 307
-308 18
-308 -212
-18 212 308
-309 -18
-309 36
18 -36 309
-310 -308
-310 -309
308 309 310
-311 18
-311 -221
-18 221 311
-312 -18
-312 37
18 -37 312
-313 -311
-313 -312
311 312 313
-314 18
-314 -230
-18 230 314
-315 -18
-315 38
18 -38 315
-316 -314
-316 -315
314 315 316
-317 18
-317 -239
-18 239 317
-318 -18
-318 39
18 -39 318
-319 -317
-319 -318
317 318 319
-320 18
-320 -248
-18 248 320
-321 -18
-321 40
18 -40 321
-322 -320
-322 -321
320 321 322
-323 18
-323 -257
-18 257 323
-324 1
-324 61
-1 -61 324
-325 -61
-325 62
61 -62 325
-326 -324
-326 -325
324 325 326
-327 2
-327 61
-2 -61 327
-328 -61
-328 -262
61 262 328
-329 -327
-329 -328
327 328 329
-330 3
-330 61
-3 -61 330
-331 -61
-331 -265
61 265 331
-332 -330
-332 -331
330 331 332
-333 4
-333 61
-4 -61 333
-334 -61
-334 -268
61 268 334
-335 -333
-335 -334
333 334 335
-336 5
-336 61
-5 -61 336
-337 -61
-337 -271
61 271 337
-338 -336
-338 -337
336 337 338
-339 6
-339 61
-6 -61 339
-340 -61
-340 -274
61 274 340
-341 -339
-341 -340
339 340 341
-342 7
-342 61
-7 -61 342
-343 -61
-343 -277
61 277 343
-344 -342
-344 -343
342 343 344
-345 8
-345 61
-8 -61 345
-346 -61
-346 -280
61 280 346
-347 -345
-347 -346
345 346 347
-348 9
-348 61
-9 -61 348
-349 -61
-349 -283
61 283 349
-350 -348
-350 -349
348 349 350
-351 10
-351 61
-10 -61 351
-352 -61
-352 -286
61 286 352
-353 -351
-353 -352
351 352 353
-354 11
-354 61
-11 -61 354
-355 -61
-355 -289
61 289 355
-356 -354
-356 -355
354 355 356
-357 12
-357 61
-12 -61 357
-358 -61
-358 -292
61 292 358
-359 -357
-359 -358
357 358 359
-360 13
-360 61
-13 -61 360
-361 -61
-361 -295
61 295 361
-362 -360
-362 -361
360 361 362
-363 14
-363 61
-14 -61 363
-364 -61
-364 -298
61 298 364
-365 -363
-365 -364
363 364 365
-366 15
-366 61
-15 -61 366
-367 -61
-367 -301
61 301 367
-368 -366
-368 -367
366 367 368
-369 16
-369 61
-16 -61 369
-370 -61
-370 -304
61 304 370
-371 -369
-371 -370
369 370 371
-372 17
-372 61
-17 -61 372
-373 -61
-373 -307
61 307 373
-374 -372
-374 -373
372 373 374
-375 -61
-375 -310
61 310 375
-376 -61
-376 -313
61 313 376
-377 -61
-377 -316
61 316 377
-378 -61
-378 -319
61 319 378
-379 -61
-379 -322
61 322 379
-380 -61
-380 323
61 -323 380
-381 -40
-381 259
40 -259 381
-382 18
-382 -381
-18 381 382
382
